-99 000 000 000 000 000 000 000 -99 -99 -99 -99 -99 000 000 -99 000 000 000 000 000 000 000 000 002 000 000 -99 -99 -99 -99
-99 000 000 000 000 000 000 000 -99 -99 -99 -99 -99 000 000 000 000 000 000 000 000 000 000 000 000 000 000 000 -99 -99 -99
-99 000 000 000 000 000 000 000 000 -99 -99 -99 -99 -99 000 000 000 000 001 000 000 000 000 000 001 000 000 000 000 -99 -99
000 000 000 000 000 000 000 000 000 000 000 000 -99 -99 000 000 000 001 001 000 001 001 000 000 000 000 000 000 -99 -99 -99
000 000 000 000 000 000 000 000 000 000 000 000 000 000 000 002 000 000 000 000 000 000 000 001 001 000 000 000 000 -99 000
000 000 000 000 001 000 000 001 001 000 000 000 000 000 000 001 000 000 000 000 000 000 000 000 002 001 001 001 -99 001 000
000 000 000 000 001 001 000 000 001 001 001 000 000 000 000 000 000 000 -99 000 000 000 000 000 001 003 003 -99 004 005 003
000 000 000 000 000 000 000 000 000 000 001 000 000 000 000 000 000 000 000 000 000 000 000 001 002 006 004 004 004 009 003
001 000 000 000 000 000 000 000 000 000 000 000 000 -99 -99 -99 000 000 000 000 000 001 001 005 007 007 003 004 007 012 005
002 000 000 000 000 000 000 000 000 000 000 000 -99 -99 000 000 000 000 000 000 000 000 002 005 030 007 005 004 008 006 006
002 001 000 000 000 000 001 000 000 000 000 000 -99 -99 000 000 000 000 000 000 000 000 001 007 013 004 005 005 006 012 006
001 000 000 000 000 000 001 002 000 000 000 000 000 -99 -99 000 000 000 000 000 000 000 002 011 013 008 006 005 005 011 007
001 001 000 000 000 000 001 002 001 001 000 000 000 -99 -99 000 000 000 000 000 000 000 002 005 011 008 005 004 002 007 004
000 001 000 000 000 000 001 002 002 001 001 000 000 000 -99 -99 -99 000 000 000 000 000 001 006 010 014 004 004 003 008 002
000 001 000 000 000 000 000 000 000 001 000 000 000 000 000 -99 -99 -99 000 000 000 000 001 003 009 011 003 003 002 003 001
001 002 001 000 000 000 000 000 000 000 000 000 000 000 000 -99 -99 000 000 000 000 000 000 001 005 006 003 002 002 003 001
004 002 001 000 000 -99 000 000 000 000 000 000 000 000 000 000 -99 000 -99 -99 -99 -99 -99 000 002 002 002 003 001 002 001
001 002 003 000 000 -99 000 000 000 000 000 000 000 000 000 000 000 -99 -99 -99 -99 000 000 000 000 001 001 003 001 001 001
000 001 002 000 000 -99 000 000 000 000 000 000 000 000 000 000 000 000 -99 -99 -99 000 000 -99 000 000 001 001 001 000 000
001 000 001 000 000 -99 000 000 000 000 000 000 000 000 000 000 000 000 000 000 000 000 000 -99 000 000 -99 -99 -99 -99 -99
001 000 000 000 000 000 -99 000 000 000 000 000 000 000 000 -99 000 000 000 000 000 000 000 -99 -99 -99 -99 -99 -99 -99 -99
000 000 000 000 000 000 -99 000 000 000 000 000 000 000 000 000 000 000 000 000 000 000 000 -99 -99 -99 -99 -99 -99 -99 -99
000 000 000 000 000 000 -99 000 000 000 000 000 000 000 000 000 000 000 000 000 000 000 000 -99 -99 -99 -99 -99 -99 -99 -99
000 000 000 000 000 000 -99 000 000 000 -99 -99 000 000 000 000 000 000 000 000 000 000 000 -99 -99 -99 -99 -99 -99 -99 -99
000 000 000 000 000 000 000 000 000 -99 -99 -99 000 000 000 000 000 000 000 000 000 000 000 -99 -99 -99 -99 -99 -99 -99 -99
000 000 000 000 000 000 000 000 000 000 -99 -99 000 000 000 000 000 000 000 000 000 000 000 -99 -99 -99 -99 -99 -99 -99 -99
000 000 -99 000 000 000 000 000 000 000 000 -99 -99 000 000 000 000 000 000 000 000 000 000 -99 -99 -99 -99 -99 -99 -99 -99
000 000 000 000 000 000 000 000 000 000 -99 -99 -99 -99 000 000 000 000 000 -99 000 000 000 -99 -99 -99 -99 -99 -99 -99 -99
000 000 000 000 000 000 000 000 000 000 -99 -99 -99 -99 000 000 000 000 000 -99 000 000 -99 -99 -99 -99 -99 -99 -99 -99 -99
000 000 000 000 000 000 000 000 000 000 -99 -99 -99 -99 000 000 000 000 000 000 000 000 -99 -99 -99 -99 -99 -99 -99 -99 -99
000 000 000 000 000 000 000 000 000 000 -99 -99 -99 000 000 000 000 000 000 000 000 000 -99 -99 -99 -99 -99 -99 -99 -99 -99
000 000 000 000 000 -99 000 000 000 -99 -99 -99 -99 000 000 -99 000 000 000 -99 -99 -99 -99 -99 000 -99 -99 -99 -99 -99 000
000 000 000 000 000 000 000 000 000 -99 -99 -99 -99 000 000 -99 000 000 000 -99 -99 -99 -99 -99 000 -99 -99 -99 -99 -99 000
000 000 000 000 000 000 000 000 000 -99 -99 -99 -99 000 000 000 000 000 -99 -99 -99 -99 000 -99 000 000 000 000 000 000 -99
000 000 000 000 000 000 000 000 000 000 -99 -99 -99 000 000 000 000 -99 -99 -99 000 -99 000 000 000 000 000 000 000 000 -99
000 000 000 000 000 000 000 000 000 -99 -99 -99 000 000 000 -99 000 -99 -99 000 000 000 000 000 000 000 000 000 000 -99 000
000 000 000 000 000 -99 -99 000 000 -99 -99 -99 000 000 000 000 000 000 -99 000 000 000 000 -99 000 000 000 000 000 -99 000
000 000 000 000 -99 -99 -99 000 000 000 -99 -99 000 000 000 000 000 000 000 -99 000 000 -99 000 000 000 000 000 000 000 -99
000 000 000 -99 -99 -99 -99 000 -99 000 -99 -99 000 000 000 000 000 000 -99 -99 000 000 -99 000 000 000 000 -99 000 000 -99
-99 000 000 000 000 -99 -99 -99 -99 -99 -99 000 000 000 000 000 000 -99 -99 -99 -99 -99 000 000 000 000 -99 -99 000 000 -99
-99 000 000 000 -99 -99 -99 -99 -99 -99 000 000 000 000 000 000 000 -99 000 -99 000 000 000 000 000 -99 -99 -99 -99 000 -99
000 000 000 000 -99 -99 -99 -99 -99 000 000 000 000 000 000 000 -99 000 000 000 000 000 000 000 000 000 -99 -99 -99 -99 -99
000 000 -99 -99 -99 000 -99 -99 -99 000 000 000 000 000 000 000 000 000 000 000 000 000 000 000 000 -99 -99 -99 -99 -99 -99
000 -99 -99 -99 -99 -99 -99 -99 000 000 -99 000 000 000 000 000 -99 000 000 000 000 000 -99 000 000 -99 -99 000 -99 -99 -99
-99 -99 -99 -99 -99 -99 -99 -99 -99 000 000 000 000 -99 000 -99 -99 000 000 000 000 000 -99 000 000 -99 000 000 -99 -99 -99
-99 -99 -99 -99 -99 -99 -99 -99 -99 -99 -99 000 000 -99 000 -99 -99 000 000 000 000 -99 -99 000 000 -99 000 000 -99 -99 000
-99 -99 -99 -99 -99 -99 -99 -99 -99 -99 -99 -99 000 000 -99 -99 000 000 000 000 000 000 000 000 000 -99 000 -99 -99 -99 -99
-99 -99 -99 -99 -99 -99 -99 -99 -99 -99 -99 -99 000 000 000 -99 000 000 000 000 000 000 000 000 000 000 000 000 000 -99 -99
-99 -99 -99 -99 -99 -99 -99 -99 -99 -99 -99 000 000 000 000 001 000 000 000 000 000 -99 000 000 000 000 000 000 000 -99 -99
-99 -99 -99 -99 -99 -99 -99 -99 -99 -99 -99 000 000 000 004 000 000 000 000 -99 -99 -99 -99 000 000 -99 000 000 000 -99 -99
-99 -99 -99 -99 -99 -99 -99 -99 -99 -99 -99 -99 000 001 003 000 000 000 000 000 -99 000 -99 -99 -99 000 000 000 000 -99 -99
-99 -99 -99 -99 -99 -99 -99 -99 -99 -99 -99 -99 000 001 -99 000 000 000 000 000 -99 -99 -99 -99 -99 000 000 000 -99 -99 -99
-99 -99 -99 -99 -99 -99 -99 -99 -99 -99 -99 -99 -99 -99 -99 000 -99 000 000 000 -99 -99 -99 -99 000 000 000 000 000 000 000
-99 -99 -99 -99 -99 -99 -99 -99 -99 -99 -99 -99 -99 -99 000 -99 000 000 000 -99 -99 -99 -99 -99 -99 -99 000 000 000 000 000
-99 -99 -99 -99 -99 -99 -99 -99 -99 -99 -99 -99 -99 000 000 000 000 000 -99 -99 -99 -99 -99 -99 -99 -99 -99 000 000 000 000
